\Problem name: compact

Minimize
OBJROW: C
Subject To
ord(0,1):  - x(0,0) + x(0,1) >= 8
ord(0,2):  - x(0,1) + x(0,2) >= 7
ord(0,3):  - x(0,2) + x(0,3) >= 10
ord(1,1):  x(1,1) - x(1,3) >= 7
ord(1,2):  - x(1,1) + x(1,2) >= 5
ord(1,3):  x(1,0) - x(1,2) >= 9
ord(2,1):  x(2,0) - x(2,3) >= 4
ord(2,2):  - x(2,0) + x(2,1) >= 3
ord(2,3):  - x(2,1) + x(2,2) >= 1
ord(3,1):  - x(3,0) + x(3,1) >= 1
ord(3,2):  - x(3,1) + x(3,2) >= 2
ord(3,3):  - x(3,2) + x(3,3) >= 2
ord(4,1):  - x(4,0) + x(4,3) >= 10
ord(4,2):  x(4,2) - x(4,3) >= 8
ord(4,3):  x(4,1) - x(4,2) >= 2
triangle2(0,1,0):  y(0,1,0) + y(1,0,0) = 1
triangle2(0,1,1):  y(0,1,1) + y(1,0,1) = 1
triangle2(0,1,2):  y(0,1,2) + y(1,0,2) = 1
triangle2(0,1,3):  y(0,1,3) + y(1,0,3) = 1
triangle2(0,2,0):  y(0,2,0) + y(2,0,0) = 1
triangle2(0,2,1):  y(0,2,1) + y(2,0,1) = 1
triangle2(0,2,2):  y(0,2,2) + y(2,0,2) = 1
triangle2(0,2,3):  y(0,2,3) + y(2,0,3) = 1
triangle2(0,3,0):  y(0,3,0) + y(3,0,0) = 1
triangle2(0,3,1):  y(0,3,1) + y(3,0,1) = 1
triangle2(0,3,2):  y(0,3,2) + y(3,0,2) = 1
triangle2(0,3,3):  y(0,3,3) + y(3,0,3) = 1
triangle2(0,4,0):  y(0,4,0) + y(4,0,0) = 1
triangle2(0,4,1):  y(0,4,1) + y(4,0,1) = 1
triangle2(0,4,2):  y(0,4,2) + y(4,0,2) = 1
triangle2(0,4,3):  y(0,4,3) + y(4,0,3) = 1
triangle2(1,2,0):  y(1,2,0) + y(2,1,0) = 1
triangle2(1,2,1):  y(1,2,1) + y(2,1,1) = 1
triangle2(1,2,2):  y(1,2,2) + y(2,1,2) = 1
triangle2(1,2,3):  y(1,2,3) + y(2,1,3) = 1
triangle2(1,3,0):  y(1,3,0) + y(3,1,0) = 1
triangle2(1,3,1):  y(1,3,1) + y(3,1,1) = 1
triangle2(1,3,2):  y(1,3,2) + y(3,1,2) = 1
triangle2(1,3,3):  y(1,3,3) + y(3,1,3) = 1
triangle2(1,4,0):  y(1,4,0) + y(4,1,0) = 1
triangle2(1,4,1):  y(1,4,1) + y(4,1,1) = 1
triangle2(1,4,2):  y(1,4,2) + y(4,1,2) = 1
triangle2(1,4,3):  y(1,4,3) + y(4,1,3) = 1
triangle2(2,3,0):  y(2,3,0) + y(3,2,0) = 1
triangle2(2,3,1):  y(2,3,1) + y(3,2,1) = 1
triangle2(2,3,2):  y(2,3,2) + y(3,2,2) = 1
triangle2(2,3,3):  y(2,3,3) + y(3,2,3) = 1
triangle2(2,4,0):  y(2,4,0) + y(4,2,0) = 1
triangle2(2,4,1):  y(2,4,1) + y(4,2,1) = 1
triangle2(2,4,2):  y(2,4,2) + y(4,2,2) = 1
triangle2(2,4,3):  y(2,4,3) + y(4,2,3) = 1
triangle2(3,4,0):  y(3,4,0) + y(4,3,0) = 1
triangle2(3,4,1):  y(3,4,1) + y(4,3,1) = 1
triangle2(3,4,2):  y(3,4,2) + y(4,3,2) = 1
triangle2(3,4,3):  y(3,4,3) + y(4,3,3) = 1
MCLinV(0,1,0):  x(0,0) - v(0,1,0) - x(1,0) = 6
MCLinV(1,0,0):  - x(0,0) - v(1,0,0) + x(1,0) = 8
MCLin1(0,1,0):  u(0,1,0) >= -0
MCLin2(0,1,0):  -104 y(1,0,0) - u(0,1,0) <= -0
MCLin3(0,1,0):  48 y(1,0,0) + v(0,1,0) - u(0,1,0) <= 48
MCLin4(0,1,0):  48 y(1,0,0) - u(0,1,0) >= -0
MCLin5(0,1,0):  -104 y(1,0,0) + v(0,1,0) - u(0,1,0) >= -104
MCLin6(1,0,0):  u(1,0,0) >= -0
MCLin7(1,0,0):  -62 y(0,1,0) - u(1,0,0) <= -0
MCLin8(1,0,0):  90 y(0,1,0) + v(1,0,0) - u(1,0,0) <= 90
MCLin9(1,0,0):  90 y(0,1,0) - u(1,0,0) >= -0
MCLin10(1,0,0):  -62 y(0,1,0) + v(1,0,0) - u(1,0,0) >= -62
MCLinV(0,1,1):  x(0,1) - v(0,1,1) - x(1,1) = 5
MCLinV(1,0,1):  - x(0,1) - v(1,0,1) + x(1,1) = 7
MCLin1(0,1,1):  u(0,1,1) >= -0
MCLin2(0,1,1):  -81 y(1,0,1) - u(0,1,1) <= -0
MCLin3(0,1,1):  71 y(1,0,1) + v(0,1,1) - u(0,1,1) <= 71
MCLin4(0,1,1):  71 y(1,0,1) - u(0,1,1) >= -0
MCLin5(0,1,1):  -81 y(1,0,1) + v(0,1,1) - u(0,1,1) >= -81
MCLin6(1,0,1):  u(1,0,1) >= -0
MCLin7(1,0,1):  -83 y(0,1,1) - u(1,0,1) <= -0
MCLin8(1,0,1):  69 y(0,1,1) + v(1,0,1) - u(1,0,1) <= 69
MCLin9(1,0,1):  69 y(0,1,1) - u(1,0,1) >= -0
MCLin10(1,0,1):  -83 y(0,1,1) + v(1,0,1) - u(1,0,1) >= -83
MCLinV(0,1,2):  x(0,2) - v(0,1,2) - x(1,2) = 9
MCLinV(1,0,2):  - x(0,2) - v(1,0,2) + x(1,2) = 10
MCLin1(0,1,2):  u(0,1,2) >= -0
MCLin2(0,1,2):  -83 y(1,0,2) - u(0,1,2) <= -0
MCLin3(0,1,2):  69 y(1,0,2) + v(0,1,2) - u(0,1,2) <= 69
MCLin4(0,1,2):  69 y(1,0,2) - u(0,1,2) >= -0
MCLin5(0,1,2):  -83 y(1,0,2) + v(0,1,2) - u(0,1,2) >= -83
MCLin6(1,0,2):  u(1,0,2) >= -0
MCLin7(1,0,2):  -88 y(0,1,2) - u(1,0,2) <= -0
MCLin8(1,0,2):  64 y(0,1,2) + v(1,0,2) - u(1,0,2) <= 64
MCLin9(1,0,2):  64 y(0,1,2) - u(1,0,2) >= -0
MCLin10(1,0,2):  -88 y(0,1,2) + v(1,0,2) - u(1,0,2) >= -88
MCLinV(0,1,3):  x(0,3) - v(0,1,3) - x(1,3) = 7
MCLinV(1,0,3):  - x(0,3) - v(1,0,3) + x(1,3) = 4
MCLin1(0,1,3):  u(0,1,3) >= -0
MCLin2(0,1,3):  -59 y(1,0,3) - u(0,1,3) <= -0
MCLin3(0,1,3):  93 y(1,0,3) + v(0,1,3) - u(0,1,3) <= 93
MCLin4(0,1,3):  93 y(1,0,3) - u(0,1,3) >= -0
MCLin5(0,1,3):  -59 y(1,0,3) + v(0,1,3) - u(0,1,3) >= -59
MCLin6(1,0,3):  u(1,0,3) >= -0
MCLin7(1,0,3):  -104 y(0,1,3) - u(1,0,3) <= -0
MCLin8(1,0,3):  48 y(0,1,3) + v(1,0,3) - u(1,0,3) <= 48
MCLin9(1,0,3):  48 y(0,1,3) - u(1,0,3) >= -0
MCLin10(1,0,3):  -104 y(0,1,3) + v(1,0,3) - u(1,0,3) >= -104
MCLinV(0,2,0):  x(0,0) - v(0,2,0) - x(2,0) = 3
MCLinV(2,0,0):  - x(0,0) - v(2,0,0) + x(2,0) = 8
MCLin1(0,2,0):  u(0,2,0) >= -0
MCLin2(0,2,0):  -99 y(2,0,0) - u(0,2,0) <= -0
MCLin3(0,2,0):  68 y(2,0,0) + v(0,2,0) - u(0,2,0) <= 68
MCLin4(0,2,0):  68 y(2,0,0) - u(0,2,0) >= -0
MCLin5(0,2,0):  -99 y(2,0,0) + v(0,2,0) - u(0,2,0) >= -99
MCLin6(2,0,0):  u(2,0,0) >= -0
MCLin7(2,0,0):  -79 y(0,2,0) - u(2,0,0) <= -0
MCLin8(2,0,0):  88 y(0,2,0) + v(2,0,0) - u(2,0,0) <= 88
MCLin9(2,0,0):  88 y(0,2,0) - u(2,0,0) >= -0
MCLin10(2,0,0):  -79 y(0,2,0) + v(2,0,0) - u(2,0,0) >= -79
MCLinV(0,2,1):  x(0,1) - v(0,2,1) - x(2,1) = 1
MCLinV(2,0,1):  - x(0,1) - v(2,0,1) + x(2,1) = 7
MCLin1(0,2,1):  u(0,2,1) >= -0
MCLin2(0,2,1):  -92 y(2,0,1) - u(0,2,1) <= -0
MCLin3(0,2,1):  75 y(2,0,1) + v(0,2,1) - u(0,2,1) <= 75
MCLin4(0,2,1):  75 y(2,0,1) - u(0,2,1) >= -0
MCLin5(0,2,1):  -92 y(2,0,1) + v(0,2,1) - u(0,2,1) >= -92
MCLin6(2,0,1):  u(2,0,1) >= -0
MCLin7(2,0,1):  -83 y(0,2,1) - u(2,0,1) <= -0
MCLin8(2,0,1):  84 y(0,2,1) + v(2,0,1) - u(2,0,1) <= 84
MCLin9(2,0,1):  84 y(0,2,1) - u(2,0,1) >= -0
MCLin10(2,0,1):  -83 y(0,2,1) + v(2,0,1) - u(2,0,1) >= -83
MCLinV(0,2,2):  x(0,2) - v(0,2,2) - x(2,2) = 4
MCLinV(2,0,2):  - x(0,2) - v(2,0,2) + x(2,2) = 10
MCLin1(0,2,2):  u(0,2,2) >= -0
MCLin2(0,2,2):  -89 y(2,0,2) - u(0,2,2) <= -0
MCLin3(0,2,2):  78 y(2,0,2) + v(0,2,2) - u(0,2,2) <= 78
MCLin4(0,2,2):  78 y(2,0,2) - u(0,2,2) >= -0
MCLin5(0,2,2):  -89 y(2,0,2) + v(0,2,2) - u(0,2,2) >= -89
MCLin6(2,0,2):  u(2,0,2) >= -0
MCLin7(2,0,2):  -92 y(0,2,2) - u(2,0,2) <= -0
MCLin8(2,0,2):  75 y(0,2,2) + v(2,0,2) - u(2,0,2) <= 75
MCLin9(2,0,2):  75 y(0,2,2) - u(2,0,2) >= -0
MCLin10(2,0,2):  -92 y(0,2,2) + v(2,0,2) - u(2,0,2) >= -92
MCLinV(0,2,3):  x(0,3) - v(0,2,3) - x(2,3) = 4
MCLinV(2,0,3):  - x(0,3) - v(2,0,3) + x(2,3) = 4
MCLin1(0,2,3):  u(0,2,3) >= -0
MCLin2(0,2,3):  -71 y(2,0,3) - u(0,2,3) <= -0
MCLin3(0,2,3):  96 y(2,0,3) + v(0,2,3) - u(0,2,3) <= 96
MCLin4(0,2,3):  96 y(2,0,3) - u(0,2,3) >= -0
MCLin5(0,2,3):  -71 y(2,0,3) + v(0,2,3) - u(0,2,3) >= -71
MCLin6(2,0,3):  u(2,0,3) >= -0
MCLin7(2,0,3):  -104 y(0,2,3) - u(2,0,3) <= -0
MCLin8(2,0,3):  63 y(0,2,3) + v(2,0,3) - u(2,0,3) <= 63
MCLin9(2,0,3):  63 y(0,2,3) - u(2,0,3) >= -0
MCLin10(2,0,3):  -104 y(0,2,3) + v(2,0,3) - u(2,0,3) >= -104
MCLinV(0,3,0):  x(0,0) - v(0,3,0) - x(3,0) = 1
MCLinV(3,0,0):  - x(0,0) - v(3,0,0) + x(3,0) = 8
MCLin1(0,3,0):  u(0,3,0) >= -0
MCLin2(0,3,0):  -95 y(3,0,0) - u(0,3,0) <= -0
MCLin3(0,3,0):  74 y(3,0,0) + v(0,3,0) - u(0,3,0) <= 74
MCLin4(0,3,0):  74 y(3,0,0) - u(0,3,0) >= -0
MCLin5(0,3,0):  -95 y(3,0,0) + v(0,3,0) - u(0,3,0) >= -95
MCLin6(3,0,0):  u(3,0,0) >= -0
MCLin7(3,0,0):  -83 y(0,3,0) - u(3,0,0) <= -0
MCLin8(3,0,0):  86 y(0,3,0) + v(3,0,0) - u(3,0,0) <= 86
MCLin9(3,0,0):  86 y(0,3,0) - u(3,0,0) >= -0
MCLin10(3,0,0):  -83 y(0,3,0) + v(3,0,0) - u(3,0,0) >= -83
MCLinV(0,3,1):  x(0,1) - v(0,3,1) - x(3,1) = 2
MCLinV(3,0,1):  - x(0,1) - v(3,0,1) + x(3,1) = 7
MCLin1(0,3,1):  u(0,3,1) >= -0
MCLin2(0,3,1):  -89 y(3,0,1) - u(0,3,1) <= -0
MCLin3(0,3,1):  80 y(3,0,1) + v(0,3,1) - u(0,3,1) <= 80
MCLin4(0,3,1):  80 y(3,0,1) - u(0,3,1) >= -0
MCLin5(0,3,1):  -89 y(3,0,1) + v(0,3,1) - u(0,3,1) >= -89
MCLin6(3,0,1):  u(3,0,1) >= -0
MCLin7(3,0,1):  -89 y(0,3,1) - u(3,0,1) <= -0
MCLin8(3,0,1):  80 y(0,3,1) + v(3,0,1) - u(3,0,1) <= 80
MCLin9(3,0,1):  80 y(0,3,1) - u(3,0,1) >= -0
MCLin10(3,0,1):  -89 y(0,3,1) + v(3,0,1) - u(3,0,1) >= -89
MCLinV(0,3,2):  x(0,2) - v(0,3,2) - x(3,2) = 2
MCLinV(3,0,2):  - x(0,2) - v(3,0,2) + x(3,2) = 10
MCLin1(0,3,2):  u(0,3,2) >= -0
MCLin2(0,3,2):  -84 y(3,0,2) - u(0,3,2) <= -0
MCLin3(0,3,2):  85 y(3,0,2) + v(0,3,2) - u(0,3,2) <= 85
MCLin4(0,3,2):  85 y(3,0,2) - u(0,3,2) >= -0
MCLin5(0,3,2):  -84 y(3,0,2) + v(0,3,2) - u(0,3,2) >= -84
MCLin6(3,0,2):  u(3,0,2) >= -0
MCLin7(3,0,2):  -97 y(0,3,2) - u(3,0,2) <= -0
MCLin8(3,0,2):  72 y(0,3,2) + v(3,0,2) - u(3,0,2) <= 72
MCLin9(3,0,2):  72 y(0,3,2) - u(3,0,2) >= -0
MCLin10(3,0,2):  -97 y(0,3,2) + v(3,0,2) - u(3,0,2) >= -97
MCLinV(0,3,3):  x(0,3) - v(0,3,3) - x(3,3) = 5
MCLinV(3,0,3):  - x(0,3) - v(3,0,3) + x(3,3) = 4
MCLin1(0,3,3):  u(0,3,3) >= -0
MCLin2(0,3,3):  -79 y(3,0,3) - u(0,3,3) <= -0
MCLin3(0,3,3):  90 y(3,0,3) + v(0,3,3) - u(0,3,3) <= 90
MCLin4(0,3,3):  90 y(3,0,3) - u(0,3,3) >= -0
MCLin5(0,3,3):  -79 y(3,0,3) + v(0,3,3) - u(0,3,3) >= -79
MCLin6(3,0,3):  u(3,0,3) >= -0
MCLin7(3,0,3):  -99 y(0,3,3) - u(3,0,3) <= -0
MCLin8(3,0,3):  70 y(0,3,3) + v(3,0,3) - u(3,0,3) <= 70
MCLin9(3,0,3):  70 y(0,3,3) - u(3,0,3) >= -0
MCLin10(3,0,3):  -99 y(0,3,3) + v(3,0,3) - u(3,0,3) >= -99
MCLinV(0,4,0):  x(0,0) - v(0,4,0) - x(4,0) = 10
MCLinV(4,0,0):  - x(0,0) - v(4,0,0) + x(4,0) = 8
MCLin1(0,4,0):  u(0,4,0) >= -0
MCLin2(0,4,0):  -88 y(4,0,0) - u(0,4,0) <= -0
MCLin3(0,4,0):  65 y(4,0,0) + v(0,4,0) - u(0,4,0) <= 65
MCLin4(0,4,0):  65 y(4,0,0) - u(0,4,0) >= -0
MCLin5(0,4,0):  -88 y(4,0,0) + v(0,4,0) - u(0,4,0) >= -88
MCLin6(4,0,0):  u(4,0,0) >= -0
MCLin7(4,0,0):  -83 y(0,4,0) - u(4,0,0) <= -0
MCLin8(4,0,0):  70 y(0,4,0) + v(4,0,0) - u(4,0,0) <= 70
MCLin9(4,0,0):  70 y(0,4,0) - u(4,0,0) >= -0
MCLin10(4,0,0):  -83 y(0,4,0) + v(4,0,0) - u(4,0,0) >= -83
MCLinV(0,4,1):  x(0,1) - v(0,4,1) - x(4,1) = 6
MCLinV(4,0,1):  - x(0,1) - v(4,0,1) + x(4,1) = 7
MCLin1(0,4,1):  u(0,4,1) >= -0
MCLin2(0,4,1):  -96 y(4,0,1) - u(0,4,1) <= -0
MCLin3(0,4,1):  57 y(4,0,1) + v(0,4,1) - u(0,4,1) <= 57
MCLin4(0,4,1):  57 y(4,0,1) - u(0,4,1) >= -0
MCLin5(0,4,1):  -96 y(4,0,1) + v(0,4,1) - u(0,4,1) >= -96
MCLin6(4,0,1):  u(4,0,1) >= -0
MCLin7(4,0,1):  -70 y(0,4,1) - u(4,0,1) <= -0
MCLin8(4,0,1):  83 y(0,4,1) + v(4,0,1) - u(4,0,1) <= 83
MCLin9(4,0,1):  83 y(0,4,1) - u(4,0,1) >= -0
MCLin10(4,0,1):  -70 y(0,4,1) + v(4,0,1) - u(4,0,1) >= -70
MCLinV(0,4,2):  x(0,2) - v(0,4,2) - x(4,2) = 2
MCLinV(4,0,2):  - x(0,2) - v(4,0,2) + x(4,2) = 10
MCLin1(0,4,2):  u(0,4,2) >= -0
MCLin2(0,4,2):  -83 y(4,0,2) - u(0,4,2) <= -0
MCLin3(0,4,2):  70 y(4,0,2) + v(0,4,2) - u(0,4,2) <= 70
MCLin4(0,4,2):  70 y(4,0,2) - u(0,4,2) >= -0
MCLin5(0,4,2):  -83 y(4,0,2) + v(0,4,2) - u(0,4,2) >= -83
MCLin6(4,0,2):  u(4,0,2) >= -0
MCLin7(4,0,2):  -82 y(0,4,2) - u(4,0,2) <= -0
MCLin8(4,0,2):  71 y(0,4,2) + v(4,0,2) - u(4,0,2) <= 71
MCLin9(4,0,2):  71 y(0,4,2) - u(4,0,2) >= -0
MCLin10(4,0,2):  -82 y(0,4,2) + v(4,0,2) - u(4,0,2) >= -82
MCLinV(0,4,3):  x(0,3) - v(0,4,3) - x(4,3) = 8
MCLinV(4,0,3):  - x(0,3) - v(4,0,3) + x(4,3) = 4
MCLin1(0,4,3):  u(0,4,3) >= -0
MCLin2(0,4,3):  -71 y(4,0,3) - u(0,4,3) <= -0
MCLin3(0,4,3):  82 y(4,0,3) + v(0,4,3) - u(0,4,3) <= 82
MCLin4(0,4,3):  82 y(4,0,3) - u(0,4,3) >= -0
MCLin5(0,4,3):  -71 y(4,0,3) + v(0,4,3) - u(0,4,3) >= -71
MCLin6(4,0,3):  u(4,0,3) >= -0
MCLin7(4,0,3):  -94 y(0,4,3) - u(4,0,3) <= -0
MCLin8(4,0,3):  59 y(0,4,3) + v(4,0,3) - u(4,0,3) <= 59
MCLin9(4,0,3):  59 y(0,4,3) - u(4,0,3) >= -0
MCLin10(4,0,3):  -94 y(0,4,3) + v(4,0,3) - u(4,0,3) >= -94
MCLinV(1,2,0):  x(1,0) - v(1,2,0) - x(2,0) = 3
MCLinV(2,1,0):  - x(1,0) - v(2,1,0) + x(2,0) = 6
MCLin1(1,2,0):  u(1,2,0) >= -0
MCLin2(1,2,0):  -78 y(2,1,0) - u(1,2,0) <= -0
MCLin3(1,2,0):  91 y(2,1,0) + v(1,2,0) - u(1,2,0) <= 91
MCLin4(1,2,0):  91 y(2,1,0) - u(1,2,0) >= -0
MCLin5(1,2,0):  -78 y(2,1,0) + v(1,2,0) - u(1,2,0) >= -78
MCLin6(2,1,0):  u(2,1,0) >= -0
MCLin7(2,1,0):  -100 y(1,2,0) - u(2,1,0) <= -0
MCLin8(2,1,0):  69 y(1,2,0) + v(2,1,0) - u(2,1,0) <= 69
MCLin9(2,1,0):  69 y(1,2,0) - u(2,1,0) >= -0
MCLin10(2,1,0):  -100 y(1,2,0) + v(2,1,0) - u(2,1,0) >= -100
MCLinV(1,2,1):  x(1,1) - v(1,2,1) - x(2,1) = 1
MCLinV(2,1,1):  - x(1,1) - v(2,1,1) + x(2,1) = 5
MCLin1(1,2,1):  u(1,2,1) >= -0
MCLin2(1,2,1):  -93 y(2,1,1) - u(1,2,1) <= -0
MCLin3(1,2,1):  76 y(2,1,1) + v(1,2,1) - u(1,2,1) <= 76
MCLin4(1,2,1):  76 y(2,1,1) - u(1,2,1) >= -0
MCLin5(1,2,1):  -93 y(2,1,1) + v(1,2,1) - u(1,2,1) >= -93
MCLin6(2,1,1):  u(2,1,1) >= -0
MCLin7(2,1,1):  -82 y(1,2,1) - u(2,1,1) <= -0
MCLin8(2,1,1):  87 y(1,2,1) + v(2,1,1) - u(2,1,1) <= 87
MCLin9(2,1,1):  87 y(1,2,1) - u(2,1,1) >= -0
MCLin10(2,1,1):  -82 y(1,2,1) + v(2,1,1) - u(2,1,1) >= -82
MCLinV(1,2,2):  x(1,2) - v(1,2,2) - x(2,2) = 4
MCLinV(2,1,2):  - x(1,2) - v(2,1,2) + x(2,2) = 9
MCLin1(1,2,2):  u(1,2,2) >= -0
MCLin2(1,2,2):  -92 y(2,1,2) - u(1,2,2) <= -0
MCLin3(1,2,2):  77 y(2,1,2) + v(1,2,2) - u(1,2,2) <= 77
MCLin4(1,2,2):  77 y(2,1,2) - u(1,2,2) >= -0
MCLin5(1,2,2):  -92 y(2,1,2) + v(1,2,2) - u(1,2,2) >= -92
MCLin6(2,1,2):  u(2,1,2) >= -0
MCLin7(2,1,2):  -90 y(1,2,2) - u(2,1,2) <= -0
MCLin8(2,1,2):  79 y(1,2,2) + v(2,1,2) - u(2,1,2) <= 79
MCLin9(2,1,2):  79 y(1,2,2) - u(2,1,2) >= -0
MCLin10(2,1,2):  -90 y(1,2,2) + v(2,1,2) - u(2,1,2) >= -90
MCLinV(1,2,3):  x(1,3) - v(1,2,3) - x(2,3) = 4
MCLinV(2,1,3):  - x(1,3) - v(2,1,3) + x(2,3) = 7
MCLin1(1,2,3):  u(1,2,3) >= -0
MCLin2(1,2,3):  -96 y(2,1,3) - u(1,2,3) <= -0
MCLin3(1,2,3):  73 y(2,1,3) + v(1,2,3) - u(1,2,3) <= 73
MCLin4(1,2,3):  73 y(2,1,3) - u(1,2,3) >= -0
MCLin5(1,2,3):  -96 y(2,1,3) + v(1,2,3) - u(1,2,3) >= -96
MCLin6(2,1,3):  u(2,1,3) >= -0
MCLin7(2,1,3):  -84 y(1,2,3) - u(2,1,3) <= -0
MCLin8(2,1,3):  85 y(1,2,3) + v(2,1,3) - u(2,1,3) <= 85
MCLin9(2,1,3):  85 y(1,2,3) - u(2,1,3) >= -0
MCLin10(2,1,3):  -84 y(1,2,3) + v(2,1,3) - u(2,1,3) >= -84
MCLinV(1,3,0):  x(1,0) - v(1,3,0) - x(3,0) = 1
MCLinV(3,1,0):  - x(1,0) - v(3,1,0) + x(3,0) = 6
MCLin1(1,3,0):  u(1,3,0) >= -0
MCLin2(1,3,0):  -74 y(3,1,0) - u(1,3,0) <= -0
MCLin3(1,3,0):  97 y(3,1,0) + v(1,3,0) - u(1,3,0) <= 97
MCLin4(1,3,0):  97 y(3,1,0) - u(1,3,0) >= -0
MCLin5(1,3,0):  -74 y(3,1,0) + v(1,3,0) - u(1,3,0) >= -74
MCLin6(3,1,0):  u(3,1,0) >= -0
MCLin7(3,1,0):  -104 y(1,3,0) - u(3,1,0) <= -0
MCLin8(3,1,0):  67 y(1,3,0) + v(3,1,0) - u(3,1,0) <= 67
MCLin9(3,1,0):  67 y(1,3,0) - u(3,1,0) >= -0
MCLin10(3,1,0):  -104 y(1,3,0) + v(3,1,0) - u(3,1,0) >= -104
MCLinV(1,3,1):  x(1,1) - v(1,3,1) - x(3,1) = 2
MCLinV(3,1,1):  - x(1,1) - v(3,1,1) + x(3,1) = 5
MCLin1(1,3,1):  u(1,3,1) >= -0
MCLin2(1,3,1):  -90 y(3,1,1) - u(1,3,1) <= -0
MCLin3(1,3,1):  81 y(3,1,1) + v(1,3,1) - u(1,3,1) <= 81
MCLin4(1,3,1):  81 y(3,1,1) - u(1,3,1) >= -0
MCLin5(1,3,1):  -90 y(3,1,1) + v(1,3,1) - u(1,3,1) >= -90
MCLin6(3,1,1):  u(3,1,1) >= -0
MCLin7(3,1,1):  -88 y(1,3,1) - u(3,1,1) <= -0
MCLin8(3,1,1):  83 y(1,3,1) + v(3,1,1) - u(3,1,1) <= 83
MCLin9(3,1,1):  83 y(1,3,1) - u(3,1,1) >= -0
MCLin10(3,1,1):  -88 y(1,3,1) + v(3,1,1) - u(3,1,1) >= -88
MCLinV(1,3,2):  x(1,2) - v(1,3,2) - x(3,2) = 2
MCLinV(3,1,2):  - x(1,2) - v(3,1,2) + x(3,2) = 9
MCLin1(1,3,2):  u(1,3,2) >= -0
MCLin2(1,3,2):  -87 y(3,1,2) - u(1,3,2) <= -0
MCLin3(1,3,2):  84 y(3,1,2) + v(1,3,2) - u(1,3,2) <= 84
MCLin4(1,3,2):  84 y(3,1,2) - u(1,3,2) >= -0
MCLin5(1,3,2):  -87 y(3,1,2) + v(1,3,2) - u(1,3,2) >= -87
MCLin6(3,1,2):  u(3,1,2) >= -0
MCLin7(3,1,2):  -95 y(1,3,2) - u(3,1,2) <= -0
MCLin8(3,1,2):  76 y(1,3,2) + v(3,1,2) - u(3,1,2) <= 76
MCLin9(3,1,2):  76 y(1,3,2) - u(3,1,2) >= -0
MCLin10(3,1,2):  -95 y(1,3,2) + v(3,1,2) - u(3,1,2) >= -95
MCLinV(1,3,3):  x(1,3) - v(1,3,3) - x(3,3) = 5
MCLinV(3,1,3):  - x(1,3) - v(3,1,3) + x(3,3) = 7
MCLin1(1,3,3):  u(1,3,3) >= -0
MCLin2(1,3,3):  -104 y(3,1,3) - u(1,3,3) <= -0
MCLin3(1,3,3):  67 y(3,1,3) + v(1,3,3) - u(1,3,3) <= 67
MCLin4(1,3,3):  67 y(3,1,3) - u(1,3,3) >= -0
MCLin5(1,3,3):  -104 y(3,1,3) + v(1,3,3) - u(1,3,3) >= -104
MCLin6(3,1,3):  u(3,1,3) >= -0
MCLin7(3,1,3):  -79 y(1,3,3) - u(3,1,3) <= -0
MCLin8(3,1,3):  92 y(1,3,3) + v(3,1,3) - u(3,1,3) <= 92
MCLin9(3,1,3):  92 y(1,3,3) - u(3,1,3) >= -0
MCLin10(3,1,3):  -79 y(1,3,3) + v(3,1,3) - u(3,1,3) >= -79
MCLinV(1,4,0):  x(1,0) - v(1,4,0) - x(4,0) = 10
MCLinV(4,1,0):  - x(1,0) - v(4,1,0) + x(4,0) = 6
MCLin1(1,4,0):  u(1,4,0) >= -0
MCLin2(1,4,0):  -67 y(4,1,0) - u(1,4,0) <= -0
MCLin3(1,4,0):  88 y(4,1,0) + v(1,4,0) - u(1,4,0) <= 88
MCLin4(1,4,0):  88 y(4,1,0) - u(1,4,0) >= -0
MCLin5(1,4,0):  -67 y(4,1,0) + v(1,4,0) - u(1,4,0) >= -67
MCLin6(4,1,0):  u(4,1,0) >= -0
MCLin7(4,1,0):  -104 y(1,4,0) - u(4,1,0) <= -0
MCLin8(4,1,0):  51 y(1,4,0) + v(4,1,0) - u(4,1,0) <= 51
MCLin9(4,1,0):  51 y(1,4,0) - u(4,1,0) >= -0
MCLin10(4,1,0):  -104 y(1,4,0) + v(4,1,0) - u(4,1,0) >= -104
MCLinV(1,4,1):  x(1,1) - v(1,4,1) - x(4,1) = 6
MCLinV(4,1,1):  - x(1,1) - v(4,1,1) + x(4,1) = 5
MCLin1(1,4,1):  u(1,4,1) >= -0
MCLin2(1,4,1):  -97 y(4,1,1) - u(1,4,1) <= -0
MCLin3(1,4,1):  58 y(4,1,1) + v(1,4,1) - u(1,4,1) <= 58
MCLin4(1,4,1):  58 y(4,1,1) - u(1,4,1) >= -0
MCLin5(1,4,1):  -97 y(4,1,1) + v(1,4,1) - u(1,4,1) >= -97
MCLin6(4,1,1):  u(4,1,1) >= -0
MCLin7(4,1,1):  -69 y(1,4,1) - u(4,1,1) <= -0
MCLin8(4,1,1):  86 y(1,4,1) + v(4,1,1) - u(4,1,1) <= 86
MCLin9(4,1,1):  86 y(1,4,1) - u(4,1,1) >= -0
MCLin10(4,1,1):  -69 y(1,4,1) + v(4,1,1) - u(4,1,1) >= -69
MCLinV(1,4,2):  x(1,2) - v(1,4,2) - x(4,2) = 2
MCLinV(4,1,2):  - x(1,2) - v(4,1,2) + x(4,2) = 9
MCLin1(1,4,2):  u(1,4,2) >= -0
MCLin2(1,4,2):  -86 y(4,1,2) - u(1,4,2) <= -0
MCLin3(1,4,2):  69 y(4,1,2) + v(1,4,2) - u(1,4,2) <= 69
MCLin4(1,4,2):  69 y(4,1,2) - u(1,4,2) >= -0
MCLin5(1,4,2):  -86 y(4,1,2) + v(1,4,2) - u(1,4,2) >= -86
MCLin6(4,1,2):  u(4,1,2) >= -0
MCLin7(4,1,2):  -80 y(1,4,2) - u(4,1,2) <= -0
MCLin8(4,1,2):  75 y(1,4,2) + v(4,1,2) - u(4,1,2) <= 75
MCLin9(4,1,2):  75 y(1,4,2) - u(4,1,2) >= -0
MCLin10(4,1,2):  -80 y(1,4,2) + v(4,1,2) - u(4,1,2) >= -80
MCLinV(1,4,3):  x(1,3) - v(1,4,3) - x(4,3) = 8
MCLinV(4,1,3):  - x(1,3) - v(4,1,3) + x(4,3) = 7
MCLin1(1,4,3):  u(1,4,3) >= -0
MCLin2(1,4,3):  -96 y(4,1,3) - u(1,4,3) <= -0
MCLin3(1,4,3):  59 y(4,1,3) + v(1,4,3) - u(1,4,3) <= 59
MCLin4(1,4,3):  59 y(4,1,3) - u(1,4,3) >= -0
MCLin5(1,4,3):  -96 y(4,1,3) + v(1,4,3) - u(1,4,3) >= -96
MCLin6(4,1,3):  u(4,1,3) >= -0
MCLin7(4,1,3):  -74 y(1,4,3) - u(4,1,3) <= -0
MCLin8(4,1,3):  81 y(1,4,3) + v(4,1,3) - u(4,1,3) <= 81
MCLin9(4,1,3):  81 y(1,4,3) - u(4,1,3) >= -0
MCLin10(4,1,3):  -74 y(1,4,3) + v(4,1,3) - u(4,1,3) >= -74
MCLinV(2,3,0):  x(2,0) - v(2,3,0) - x(3,0) = 1
MCLinV(3,2,0):  - x(2,0) - v(3,2,0) + x(3,0) = 3
MCLin1(2,3,0):  u(2,3,0) >= -0
MCLin2(2,3,0):  -91 y(3,2,0) - u(2,3,0) <= -0
MCLin3(2,3,0):  95 y(3,2,0) + v(2,3,0) - u(2,3,0) <= 95
MCLin4(2,3,0):  95 y(3,2,0) - u(2,3,0) >= -0
MCLin5(2,3,0):  -91 y(3,2,0) + v(2,3,0) - u(2,3,0) >= -91
MCLin6(3,2,0):  u(3,2,0) >= -0
MCLin7(3,2,0):  -99 y(2,3,0) - u(3,2,0) <= -0
MCLin8(3,2,0):  87 y(2,3,0) + v(3,2,0) - u(3,2,0) <= 87
MCLin9(3,2,0):  87 y(2,3,0) - u(3,2,0) >= -0
MCLin10(3,2,0):  -99 y(2,3,0) + v(3,2,0) - u(3,2,0) >= -99
MCLinV(2,3,1):  x(2,1) - v(2,3,1) - x(3,1) = 2
MCLinV(3,2,1):  - x(2,1) - v(3,2,1) + x(3,1) = 1
MCLin1(2,3,1):  u(2,3,1) >= -0
MCLin2(2,3,1):  -90 y(3,2,1) - u(2,3,1) <= -0
MCLin3(2,3,1):  96 y(3,2,1) + v(2,3,1) - u(2,3,1) <= 96
MCLin4(2,3,1):  96 y(3,2,1) - u(2,3,1) >= -0
MCLin5(2,3,1):  -90 y(3,2,1) + v(2,3,1) - u(2,3,1) >= -90
MCLin6(3,2,1):  u(3,2,1) >= -0
MCLin7(3,2,1):  -99 y(2,3,1) - u(3,2,1) <= -0
MCLin8(3,2,1):  87 y(2,3,1) + v(3,2,1) - u(3,2,1) <= 87
MCLin9(3,2,1):  87 y(2,3,1) - u(3,2,1) >= -0
MCLin10(3,2,1):  -99 y(2,3,1) + v(3,2,1) - u(3,2,1) >= -99
MCLinV(2,3,2):  x(2,2) - v(2,3,2) - x(3,2) = 2
MCLinV(3,2,2):  - x(2,2) - v(3,2,2) + x(3,2) = 4
MCLin1(2,3,2):  u(2,3,2) >= -0
MCLin2(2,3,2):  -91 y(3,2,2) - u(2,3,2) <= -0
MCLin3(2,3,2):  95 y(3,2,2) + v(2,3,2) - u(2,3,2) <= 95
MCLin4(2,3,2):  95 y(3,2,2) - u(2,3,2) >= -0
MCLin5(2,3,2):  -91 y(3,2,2) + v(2,3,2) - u(2,3,2) >= -91
MCLin6(3,2,2):  u(3,2,2) >= -0
MCLin7(3,2,2):  -101 y(2,3,2) - u(3,2,2) <= -0
MCLin8(3,2,2):  85 y(2,3,2) + v(3,2,2) - u(3,2,2) <= 85
MCLin9(3,2,2):  85 y(2,3,2) - u(3,2,2) >= -0
MCLin10(3,2,2):  -101 y(2,3,2) + v(3,2,2) - u(3,2,2) >= -101
MCLinV(2,3,3):  x(2,3) - v(2,3,3) - x(3,3) = 5
MCLinV(3,2,3):  - x(2,3) - v(3,2,3) + x(3,3) = 4
MCLin1(2,3,3):  u(2,3,3) >= -0
MCLin2(2,3,3):  -104 y(3,2,3) - u(2,3,3) <= -0
MCLin3(2,3,3):  82 y(3,2,3) + v(2,3,3) - u(2,3,3) <= 82
MCLin4(2,3,3):  82 y(3,2,3) - u(2,3,3) >= -0
MCLin5(2,3,3):  -104 y(3,2,3) + v(2,3,3) - u(2,3,3) >= -104
MCLin6(3,2,3):  u(3,2,3) >= -0
MCLin7(3,2,3):  -91 y(2,3,3) - u(3,2,3) <= -0
MCLin8(3,2,3):  95 y(2,3,3) + v(3,2,3) - u(3,2,3) <= 95
MCLin9(3,2,3):  95 y(2,3,3) - u(3,2,3) >= -0
MCLin10(3,2,3):  -91 y(2,3,3) + v(3,2,3) - u(3,2,3) >= -91
MCLinV(2,4,0):  x(2,0) - v(2,4,0) - x(4,0) = 10
MCLinV(4,2,0):  - x(2,0) - v(4,2,0) + x(4,0) = 3
MCLin1(2,4,0):  u(2,4,0) >= -0
MCLin2(2,4,0):  -84 y(4,2,0) - u(2,4,0) <= -0
MCLin3(2,4,0):  86 y(4,2,0) + v(2,4,0) - u(2,4,0) <= 86
MCLin4(2,4,0):  86 y(4,2,0) - u(2,4,0) >= -0
MCLin5(2,4,0):  -84 y(4,2,0) + v(2,4,0) - u(2,4,0) >= -84
MCLin6(4,2,0):  u(4,2,0) >= -0
MCLin7(4,2,0):  -99 y(2,4,0) - u(4,2,0) <= -0
MCLin8(4,2,0):  71 y(2,4,0) + v(4,2,0) - u(4,2,0) <= 71
MCLin9(4,2,0):  71 y(2,4,0) - u(4,2,0) >= -0
MCLin10(4,2,0):  -99 y(2,4,0) + v(4,2,0) - u(4,2,0) >= -99
MCLinV(2,4,1):  x(2,1) - v(2,4,1) - x(4,1) = 6
MCLinV(4,2,1):  - x(2,1) - v(4,2,1) + x(4,1) = 1
MCLin1(2,4,1):  u(2,4,1) >= -0
MCLin2(2,4,1):  -97 y(4,2,1) - u(2,4,1) <= -0
MCLin3(2,4,1):  73 y(4,2,1) + v(2,4,1) - u(2,4,1) <= 73
MCLin4(2,4,1):  73 y(4,2,1) - u(2,4,1) >= -0
MCLin5(2,4,1):  -97 y(4,2,1) + v(2,4,1) - u(2,4,1) >= -97
MCLin6(4,2,1):  u(4,2,1) >= -0
MCLin7(4,2,1):  -80 y(2,4,1) - u(4,2,1) <= -0
MCLin8(4,2,1):  90 y(2,4,1) + v(4,2,1) - u(4,2,1) <= 90
MCLin9(4,2,1):  90 y(2,4,1) - u(4,2,1) >= -0
MCLin10(4,2,1):  -80 y(2,4,1) + v(4,2,1) - u(4,2,1) >= -80
MCLinV(2,4,2):  x(2,2) - v(2,4,2) - x(4,2) = 2
MCLinV(4,2,2):  - x(2,2) - v(4,2,2) + x(4,2) = 4
MCLin1(2,4,2):  u(2,4,2) >= -0
MCLin2(2,4,2):  -90 y(4,2,2) - u(2,4,2) <= -0
MCLin3(2,4,2):  80 y(4,2,2) + v(2,4,2) - u(2,4,2) <= 80
MCLin4(2,4,2):  80 y(4,2,2) - u(2,4,2) >= -0
MCLin5(2,4,2):  -90 y(4,2,2) + v(2,4,2) - u(2,4,2) >= -90
MCLin6(4,2,2):  u(4,2,2) >= -0
MCLin7(4,2,2):  -86 y(2,4,2) - u(4,2,2) <= -0
MCLin8(4,2,2):  84 y(2,4,2) + v(4,2,2) - u(4,2,2) <= 84
MCLin9(4,2,2):  84 y(2,4,2) - u(4,2,2) >= -0
MCLin10(4,2,2):  -86 y(2,4,2) + v(4,2,2) - u(4,2,2) >= -86
MCLinV(2,4,3):  x(2,3) - v(2,4,3) - x(4,3) = 8
MCLinV(4,2,3):  - x(2,3) - v(4,2,3) + x(4,3) = 4
MCLin1(2,4,3):  u(2,4,3) >= -0
MCLin2(2,4,3):  -96 y(4,2,3) - u(2,4,3) <= -0
MCLin3(2,4,3):  74 y(4,2,3) + v(2,4,3) - u(2,4,3) <= 74
MCLin4(2,4,3):  74 y(4,2,3) - u(2,4,3) >= -0
MCLin5(2,4,3):  -96 y(4,2,3) + v(2,4,3) - u(2,4,3) >= -96
MCLin6(4,2,3):  u(4,2,3) >= -0
MCLin7(4,2,3):  -86 y(2,4,3) - u(4,2,3) <= -0
MCLin8(4,2,3):  84 y(2,4,3) + v(4,2,3) - u(4,2,3) <= 84
MCLin9(4,2,3):  84 y(2,4,3) - u(4,2,3) >= -0
MCLin10(4,2,3):  -86 y(2,4,3) + v(4,2,3) - u(4,2,3) >= -86
MCLinV(3,4,0):  x(3,0) - v(3,4,0) - x(4,0) = 10
MCLinV(4,3,0):  - x(3,0) - v(4,3,0) + x(4,0) = 1
MCLin1(3,4,0):  u(3,4,0) >= -0
MCLin2(3,4,0):  -88 y(4,3,0) - u(3,4,0) <= -0
MCLin3(3,4,0):  84 y(4,3,0) + v(3,4,0) - u(3,4,0) <= 84
MCLin4(3,4,0):  84 y(4,3,0) - u(3,4,0) >= -0
MCLin5(3,4,0):  -88 y(4,3,0) + v(3,4,0) - u(3,4,0) >= -88
MCLin6(4,3,0):  u(4,3,0) >= -0
MCLin7(4,3,0):  -95 y(3,4,0) - u(4,3,0) <= -0
MCLin8(4,3,0):  77 y(3,4,0) + v(4,3,0) - u(4,3,0) <= 77
MCLin9(4,3,0):  77 y(3,4,0) - u(4,3,0) >= -0
MCLin10(4,3,0):  -95 y(3,4,0) + v(4,3,0) - u(4,3,0) >= -95
MCLinV(3,4,1):  x(3,1) - v(3,4,1) - x(4,1) = 6
MCLinV(4,3,1):  - x(3,1) - v(4,3,1) + x(4,1) = 2
MCLin1(3,4,1):  u(3,4,1) >= -0
MCLin2(3,4,1):  -103 y(4,3,1) - u(3,4,1) <= -0
MCLin3(3,4,1):  69 y(4,3,1) + v(3,4,1) - u(3,4,1) <= 69
MCLin4(3,4,1):  69 y(4,3,1) - u(3,4,1) >= -0
MCLin5(3,4,1):  -103 y(4,3,1) + v(3,4,1) - u(3,4,1) >= -103
MCLin6(4,3,1):  u(4,3,1) >= -0
MCLin7(4,3,1):  -77 y(3,4,1) - u(4,3,1) <= -0
MCLin8(4,3,1):  95 y(3,4,1) + v(4,3,1) - u(4,3,1) <= 95
MCLin9(4,3,1):  95 y(3,4,1) - u(4,3,1) >= -0
MCLin10(4,3,1):  -77 y(3,4,1) + v(4,3,1) - u(4,3,1) >= -77
MCLinV(3,4,2):  x(3,2) - v(3,4,2) - x(4,2) = 2
MCLinV(4,3,2):  - x(3,2) - v(4,3,2) + x(4,2) = 2
MCLin1(3,4,2):  u(3,4,2) >= -0
MCLin2(3,4,2):  -95 y(4,3,2) - u(3,4,2) <= -0
MCLin3(3,4,2):  77 y(4,3,2) + v(3,4,2) - u(3,4,2) <= 77
MCLin4(3,4,2):  77 y(4,3,2) - u(3,4,2) >= -0
MCLin5(3,4,2):  -95 y(4,3,2) + v(3,4,2) - u(3,4,2) >= -95
MCLin6(4,3,2):  u(4,3,2) >= -0
MCLin7(4,3,2):  -81 y(3,4,2) - u(4,3,2) <= -0
MCLin8(4,3,2):  91 y(3,4,2) + v(4,3,2) - u(4,3,2) <= 91
MCLin9(4,3,2):  91 y(3,4,2) - u(4,3,2) >= -0
MCLin10(4,3,2):  -81 y(3,4,2) + v(4,3,2) - u(4,3,2) >= -81
MCLinV(3,4,3):  x(3,3) - v(3,4,3) - x(4,3) = 8
MCLinV(4,3,3):  - x(3,3) - v(4,3,3) + x(4,3) = 5
MCLin1(3,4,3):  u(3,4,3) >= -0
MCLin2(3,4,3):  -91 y(4,3,3) - u(3,4,3) <= -0
MCLin3(3,4,3):  81 y(4,3,3) + v(3,4,3) - u(3,4,3) <= 81
MCLin4(3,4,3):  81 y(4,3,3) - u(3,4,3) >= -0
MCLin5(3,4,3):  -91 y(4,3,3) + v(3,4,3) - u(3,4,3) >= -91
MCLin6(4,3,3):  u(4,3,3) >= -0
MCLin7(4,3,3):  -94 y(3,4,3) - u(4,3,3) <= -0
MCLin8(4,3,3):  78 y(3,4,3) + v(4,3,3) - u(4,3,3) <= 78
MCLin9(4,3,3):  78 y(3,4,3) - u(4,3,3) >= -0
MCLin10(4,3,3):  -94 y(3,4,3) + v(4,3,3) - u(4,3,3) >= -94
makespan(0):  C - x(0,3) >= 4
makespan(1):  C - x(1,0) >= 6
makespan(2):  C - x(2,2) >= 4
makespan(3):  C - x(3,3) >= 5
makespan(4):  C - x(4,1) >= 6
Bounds
 0 <= C <= 104
 0 <= x(0,0) <= 75
 0 <= y(0,1,0) <= 1
 0 <= y(1,0,0) <= 1
 -104 <= v(0,1,0) <= 48
 -62 <= v(1,0,0) <= 90
 -1040 <= u(0,1,0)
 -1040 <= u(1,0,0)
 0 <= y(0,2,0) <= 1
 0 <= y(2,0,0) <= 1
 -99 <= v(0,2,0) <= 68
 -79 <= v(2,0,0) <= 88
 -1040 <= u(0,2,0)
 -1040 <= u(2,0,0)
 0 <= y(0,3,0) <= 1
 0 <= y(3,0,0) <= 1
 -95 <= v(0,3,0) <= 74
 -83 <= v(3,0,0) <= 86
 -1040 <= u(0,3,0)
 -1040 <= u(3,0,0)
 0 <= y(0,4,0) <= 1
 0 <= y(4,0,0) <= 1
 -88 <= v(0,4,0) <= 65
 -83 <= v(4,0,0) <= 70
 -1040 <= u(0,4,0)
 -1040 <= u(4,0,0)
 21 <= x(1,0) <= 98
 0 <= y(1,2,0) <= 1
 0 <= y(2,1,0) <= 1
 -78 <= v(1,2,0) <= 91
 -100 <= v(2,1,0) <= 69
 -1040 <= u(1,2,0)
 -1040 <= u(2,1,0)
 0 <= y(1,3,0) <= 1
 0 <= y(3,1,0) <= 1
 -74 <= v(1,3,0) <= 97
 -104 <= v(3,1,0) <= 67
 -1040 <= u(1,3,0)
 -1040 <= u(3,1,0)
 0 <= y(1,4,0) <= 1
 0 <= y(4,1,0) <= 1
 -67 <= v(1,4,0) <= 88
 -104 <= v(4,1,0) <= 51
 -1040 <= u(1,4,0)
 -1040 <= u(4,1,0)
 4 <= x(2,0) <= 96
 0 <= y(2,3,0) <= 1
 0 <= y(3,2,0) <= 1
 -91 <= v(2,3,0) <= 95
 -99 <= v(3,2,0) <= 87
 -1040 <= u(2,3,0)
 -1040 <= u(3,2,0)
 0 <= y(2,4,0) <= 1
 0 <= y(4,2,0) <= 1
 -84 <= v(2,4,0) <= 86
 -99 <= v(4,2,0) <= 71
 -1040 <= u(2,4,0)
 -1040 <= u(4,2,0)
 0 <= x(3,0) <= 94
 0 <= y(3,4,0) <= 1
 0 <= y(4,3,0) <= 1
 -88 <= v(3,4,0) <= 84
 -95 <= v(4,3,0) <= 77
 -1040 <= u(3,4,0)
 -1040 <= u(4,3,0)
 0 <= x(4,0) <= 78
 8 <= x(0,1) <= 83
 0 <= y(0,1,1) <= 1
 0 <= y(1,0,1) <= 1
 -81 <= v(0,1,1) <= 71
 -83 <= v(1,0,1) <= 69
 -1040 <= u(0,1,1)
 -1040 <= u(1,0,1)
 0 <= y(0,2,1) <= 1
 0 <= y(2,0,1) <= 1
 -92 <= v(0,2,1) <= 75
 -83 <= v(2,0,1) <= 84
 -1040 <= u(0,2,1)
 -1040 <= u(2,0,1)
 0 <= y(0,3,1) <= 1
 0 <= y(3,0,1) <= 1
 -89 <= v(0,3,1) <= 80
 -89 <= v(3,0,1) <= 80
 -1040 <= u(0,3,1)
 -1040 <= u(3,0,1)
 0 <= y(0,4,1) <= 1
 0 <= y(4,0,1) <= 1
 -96 <= v(0,4,1) <= 57
 -70 <= v(4,0,1) <= 83
 -1040 <= u(0,4,1)
 -1040 <= u(4,0,1)
 7 <= x(1,1) <= 84
 0 <= y(1,2,1) <= 1
 0 <= y(2,1,1) <= 1
 -93 <= v(1,2,1) <= 76
 -82 <= v(2,1,1) <= 87
 -1040 <= u(1,2,1)
 -1040 <= u(2,1,1)
 0 <= y(1,3,1) <= 1
 0 <= y(3,1,1) <= 1
 -90 <= v(1,3,1) <= 81
 -88 <= v(3,1,1) <= 83
 -1040 <= u(1,3,1)
 -1040 <= u(3,1,1)
 0 <= y(1,4,1) <= 1
 0 <= y(4,1,1) <= 1
 -97 <= v(1,4,1) <= 58
 -69 <= v(4,1,1) <= 86
 -1040 <= u(1,4,1)
 -1040 <= u(4,1,1)
 7 <= x(2,1) <= 99
 0 <= y(2,3,1) <= 1
 0 <= y(3,2,1) <= 1
 -90 <= v(2,3,1) <= 96
 -99 <= v(3,2,1) <= 87
 -1040 <= u(2,3,1)
 -1040 <= u(3,2,1)
 0 <= y(2,4,1) <= 1
 0 <= y(4,2,1) <= 1
 -97 <= v(2,4,1) <= 73
 -80 <= v(4,2,1) <= 90
 -1040 <= u(2,4,1)
 -1040 <= u(4,2,1)
 1 <= x(3,1) <= 95
 0 <= y(3,4,1) <= 1
 0 <= y(4,3,1) <= 1
 -103 <= v(3,4,1) <= 69
 -77 <= v(4,3,1) <= 95
 -1040 <= u(3,4,1)
 -1040 <= u(4,3,1)
 20 <= x(4,1) <= 98
 15 <= x(0,2) <= 90
 0 <= y(0,1,2) <= 1
 0 <= y(1,0,2) <= 1
 -83 <= v(0,1,2) <= 69
 -88 <= v(1,0,2) <= 64
 -1040 <= u(0,1,2)
 -1040 <= u(1,0,2)
 0 <= y(0,2,2) <= 1
 0 <= y(2,0,2) <= 1
 -89 <= v(0,2,2) <= 78
 -92 <= v(2,0,2) <= 75
 -1040 <= u(0,2,2)
 -1040 <= u(2,0,2)
 0 <= y(0,3,2) <= 1
 0 <= y(3,0,2) <= 1
 -84 <= v(0,3,2) <= 85
 -97 <= v(3,0,2) <= 72
 -1040 <= u(0,3,2)
 -1040 <= u(3,0,2)
 0 <= y(0,4,2) <= 1
 0 <= y(4,0,2) <= 1
 -83 <= v(0,4,2) <= 70
 -82 <= v(4,0,2) <= 71
 -1040 <= u(0,4,2)
 -1040 <= u(4,0,2)
 12 <= x(1,2) <= 89
 0 <= y(1,2,2) <= 1
 0 <= y(2,1,2) <= 1
 -92 <= v(1,2,2) <= 77
 -90 <= v(2,1,2) <= 79
 -1040 <= u(1,2,2)
 -1040 <= u(2,1,2)
 0 <= y(1,3,2) <= 1
 0 <= y(3,1,2) <= 1
 -87 <= v(1,3,2) <= 84
 -95 <= v(3,1,2) <= 76
 -1040 <= u(1,3,2)
 -1040 <= u(3,1,2)
 0 <= y(1,4,2) <= 1
 0 <= y(4,1,2) <= 1
 -86 <= v(1,4,2) <= 69
 -80 <= v(4,1,2) <= 75
 -1040 <= u(1,4,2)
 -1040 <= u(4,1,2)
 8 <= x(2,2) <= 100
 0 <= y(2,3,2) <= 1
 0 <= y(3,2,2) <= 1
 -91 <= v(2,3,2) <= 95
 -101 <= v(3,2,2) <= 85
 -1040 <= u(2,3,2)
 -1040 <= u(3,2,2)
 0 <= y(2,4,2) <= 1
 0 <= y(4,2,2) <= 1
 -90 <= v(2,4,2) <= 80
 -86 <= v(4,2,2) <= 84
 -1040 <= u(2,4,2)
 -1040 <= u(4,2,2)
 3 <= x(3,2) <= 97
 0 <= y(3,4,2) <= 1
 0 <= y(4,3,2) <= 1
 -95 <= v(3,4,2) <= 77
 -81 <= v(4,3,2) <= 91
 -1040 <= u(3,4,2)
 -1040 <= u(4,3,2)
 18 <= x(4,2) <= 96
 25 <= x(0,3) <= 100
 0 <= y(0,1,3) <= 1
 0 <= y(1,0,3) <= 1
 -59 <= v(0,1,3) <= 93
 -104 <= v(1,0,3) <= 48
 -1040 <= u(0,1,3)
 -1040 <= u(1,0,3)
 0 <= y(0,2,3) <= 1
 0 <= y(2,0,3) <= 1
 -71 <= v(0,2,3) <= 96
 -104 <= v(2,0,3) <= 63
 -1040 <= u(0,2,3)
 -1040 <= u(2,0,3)
 0 <= y(0,3,3) <= 1
 0 <= y(3,0,3) <= 1
 -79 <= v(0,3,3) <= 90
 -99 <= v(3,0,3) <= 70
 -1040 <= u(0,3,3)
 -1040 <= u(3,0,3)
 0 <= y(0,4,3) <= 1
 0 <= y(4,0,3) <= 1
 -71 <= v(0,4,3) <= 82
 -94 <= v(4,0,3) <= 59
 -1040 <= u(0,4,3)
 -1040 <= u(4,0,3)
 0 <= x(1,3) <= 77
 0 <= y(1,2,3) <= 1
 0 <= y(2,1,3) <= 1
 -96 <= v(1,2,3) <= 73
 -84 <= v(2,1,3) <= 85
 -1040 <= u(1,2,3)
 -1040 <= u(2,1,3)
 0 <= y(1,3,3) <= 1
 0 <= y(3,1,3) <= 1
 -104 <= v(1,3,3) <= 67
 -79 <= v(3,1,3) <= 92
 -1040 <= u(1,3,3)
 -1040 <= u(3,1,3)
 0 <= y(1,4,3) <= 1
 0 <= y(4,1,3) <= 1
 -96 <= v(1,4,3) <= 59
 -74 <= v(4,1,3) <= 81
 -1040 <= u(1,4,3)
 -1040 <= u(4,1,3)
 0 <= x(2,3) <= 92
 0 <= y(2,3,3) <= 1
 0 <= y(3,2,3) <= 1
 -104 <= v(2,3,3) <= 82
 -91 <= v(3,2,3) <= 95
 -1040 <= u(2,3,3)
 -1040 <= u(3,2,3)
 0 <= y(2,4,3) <= 1
 0 <= y(4,2,3) <= 1
 -96 <= v(2,4,3) <= 74
 -86 <= v(4,2,3) <= 84
 -1040 <= u(2,4,3)
 -1040 <= u(4,2,3)
 5 <= x(3,3) <= 99
 0 <= y(3,4,3) <= 1
 0 <= y(4,3,3) <= 1
 -91 <= v(3,4,3) <= 81
 -94 <= v(4,3,3) <= 78
 -1040 <= u(3,4,3)
 -1040 <= u(4,3,3)
 10 <= x(4,3) <= 88
Integers
C x(0,0) y(0,1,0) y(1,0,0) v(0,1,0) v(1,0,0) u(0,1,0) u(1,0,0) y(0,2,0) y(2,0,0) 
v(0,2,0) v(2,0,0) u(0,2,0) u(2,0,0) y(0,3,0) y(3,0,0) v(0,3,0) v(3,0,0) u(0,3,0) u(3,0,0) 
y(0,4,0) y(4,0,0) v(0,4,0) v(4,0,0) u(0,4,0) u(4,0,0) x(1,0) y(1,2,0) y(2,1,0) v(1,2,0) 
v(2,1,0) u(1,2,0) u(2,1,0) y(1,3,0) y(3,1,0) v(1,3,0) v(3,1,0) u(1,3,0) u(3,1,0) y(1,4,0) 
y(4,1,0) v(1,4,0) v(4,1,0) u(1,4,0) u(4,1,0) x(2,0) y(2,3,0) y(3,2,0) v(2,3,0) v(3,2,0) 
u(2,3,0) u(3,2,0) y(2,4,0) y(4,2,0) v(2,4,0) v(4,2,0) u(2,4,0) u(4,2,0) x(3,0) y(3,4,0) 
y(4,3,0) v(3,4,0) v(4,3,0) u(3,4,0) u(4,3,0) x(4,0) x(0,1) y(0,1,1) y(1,0,1) v(0,1,1) 
v(1,0,1) u(0,1,1) u(1,0,1) y(0,2,1) y(2,0,1) v(0,2,1) v(2,0,1) u(0,2,1) u(2,0,1) y(0,3,1) 
y(3,0,1) v(0,3,1) v(3,0,1) u(0,3,1) u(3,0,1) y(0,4,1) y(4,0,1) v(0,4,1) v(4,0,1) u(0,4,1) 
u(4,0,1) x(1,1) y(1,2,1) y(2,1,1) v(1,2,1) v(2,1,1) u(1,2,1) u(2,1,1) y(1,3,1) y(3,1,1) 
v(1,3,1) v(3,1,1) u(1,3,1) u(3,1,1) y(1,4,1) y(4,1,1) v(1,4,1) v(4,1,1) u(1,4,1) u(4,1,1) 
x(2,1) y(2,3,1) y(3,2,1) v(2,3,1) v(3,2,1) u(2,3,1) u(3,2,1) y(2,4,1) y(4,2,1) v(2,4,1) 
v(4,2,1) u(2,4,1) u(4,2,1) x(3,1) y(3,4,1) y(4,3,1) v(3,4,1) v(4,3,1) u(3,4,1) u(4,3,1) 
x(4,1) x(0,2) y(0,1,2) y(1,0,2) v(0,1,2) v(1,0,2) u(0,1,2) u(1,0,2) y(0,2,2) y(2,0,2) 
v(0,2,2) v(2,0,2) u(0,2,2) u(2,0,2) y(0,3,2) y(3,0,2) v(0,3,2) v(3,0,2) u(0,3,2) u(3,0,2) 
y(0,4,2) y(4,0,2) v(0,4,2) v(4,0,2) u(0,4,2) u(4,0,2) x(1,2) y(1,2,2) y(2,1,2) v(1,2,2) 
v(2,1,2) u(1,2,2) u(2,1,2) y(1,3,2) y(3,1,2) v(1,3,2) v(3,1,2) u(1,3,2) u(3,1,2) y(1,4,2) 
y(4,1,2) v(1,4,2) v(4,1,2) u(1,4,2) u(4,1,2) x(2,2) y(2,3,2) y(3,2,2) v(2,3,2) v(3,2,2) 
u(2,3,2) u(3,2,2) y(2,4,2) y(4,2,2) v(2,4,2) v(4,2,2) u(2,4,2) u(4,2,2) x(3,2) y(3,4,2) 
y(4,3,2) v(3,4,2) v(4,3,2) u(3,4,2) u(4,3,2) x(4,2) x(0,3) y(0,1,3) y(1,0,3) v(0,1,3) 
v(1,0,3) u(0,1,3) u(1,0,3) y(0,2,3) y(2,0,3) v(0,2,3) v(2,0,3) u(0,2,3) u(2,0,3) y(0,3,3) 
y(3,0,3) v(0,3,3) v(3,0,3) u(0,3,3) u(3,0,3) y(0,4,3) y(4,0,3) v(0,4,3) v(4,0,3) u(0,4,3) 
u(4,0,3) x(1,3) y(1,2,3) y(2,1,3) v(1,2,3) v(2,1,3) u(1,2,3) u(2,1,3) y(1,3,3) y(3,1,3) 
v(1,3,3) v(3,1,3) u(1,3,3) u(3,1,3) y(1,4,3) y(4,1,3) v(1,4,3) v(4,1,3) u(1,4,3) u(4,1,3) 
x(2,3) y(2,3,3) y(3,2,3) v(2,3,3) v(3,2,3) u(2,3,3) u(3,2,3) y(2,4,3) y(4,2,3) v(2,4,3) 
v(4,2,3) u(2,4,3) u(4,2,3) x(3,3) y(3,4,3) y(4,3,3) v(3,4,3) v(4,3,3) u(3,4,3) u(4,3,3) 
x(4,3) 
End
